proyfinal/src/viki/013/experimentInOfficeAgust.take6.output/bd2e9d41-f2c5-4872-ac62-37a113e106cc.als.dat
{'cnf.clauses': '118081',
 'cnf.totvars': '69608',
 'conflict literals': '4',
 'conflicts': '4',
 'decisions': '1088',
 'memused.mb': '16.45',
 'outcome': 'UNSAT',
 'propagations': '20689',
 'restarts': '1',
 'solver.msecs': 34,
 'task.msecs': 97}
