proyfinal/src/viki/013/experimentInOfficeAgust.take6.output/bd2e9d41-f2c5-4872-ac62-37a113e106cc.als.out
Reading from standard input... Use '--help' for help.
============================[ Problem Statistics ]=============================
|                                                                             |
|  Number of variables:         69608                                         |
|  Number of clauses:          118081                                         |
|  Parse time:                   0.02 s                                       |
|                                                                             |
============================[ Search Statistics ]==============================
| Conflicts |          ORIGINAL         |          LEARNT          | Progress |
|           |    Vars  Clauses Literals |    Limit  Clauses Lit/Cl |          |
===============================================================================
===============================================================================
restarts              : 1
conflicts             : 4              (115 /sec)
decisions             : 1088           (0.00 % random) (31318 /sec)
propagations          : 20689          (595538 /sec)
conflict literals     : 4              (0.00 % deleted)
Memory used           : 16.45 MB
CPU time              : 0.03474 s

UNSATISFIABLE
